experiment/data/lkh-res/Vrp-Set-B-n68/Vrp-Set-B-n68-lkh/0.lkh1.vrp
NAME : 0
COMMENT : CVRP Instance
TYPE : CVRP
DIMENSION : 68
EDGE_WEIGHT_TYPE : EUC_2D
CAPACITY : 100
NODE_COORD_SECTION
1	8700	3900
2	6300	4500
3	500	7100
4	7100	1300
5	5900	6300
6	4500	9500
7	2900	1300
8	5100	7900
9	700	6700
10	2500	8500
11	100	700
12	7200	1400
13	2800	8600
14	5200	8600
15	4600	10000
16	6600	4600
17	2800	9000
18	1600	7000
19	200	1400
20	7900	2100
21	1400	7200
22	3200	8800
23	600	7200
24	7300	1500
25	200	1200
26	7300	2100
27	1200	7600
28	6600	7200
29	200	1600
30	3800	1600
31	3000	8800
32	6800	5400
33	3200	1400
34	6400	4600
35	2600	8800
36	6200	6800
37	3400	1600
38	800	6800
39	7700	1500
40	7300	1500
41	7500	1500
42	800	6800
43	3600	2000
44	5600	8200
45	2600	8800
46	2800	8600
47	5200	8400
48	6000	7000
49	2600	8600
50	800	7200
51	7600	1600
52	600	7600
53	1400	7200
54	7800	1400
55	3400	9200
56	7400	1400
57	6400	4600
58	1000	7400
59	600	800
60	2800	8800
61	6000	6400
62	600	7800
63	4600	10200
64	7700	2300
65	6800	6600
66	5800	8000
67	5800	8400
68	3600	1400
DEMAND_SECTION
1	0
2	10
3	3
4	7
5	18
6	2
7	2
8	23
9	8
10	9
11	22
12	12
13	20
14	21
15	9
16	6
17	11
18	18
19	23
20	10
21	11
22	3
23	10
24	23
25	8
26	16
27	26
28	19
29	9
30	18
31	5
32	23
33	1
34	2
35	21
36	19
37	5
38	14
39	10
40	2
41	16
42	17
43	5
44	16
45	6
46	11
47	14
48	17
49	8
50	48
51	12
52	9
53	6
54	10
55	19
56	22
57	5
58	12
59	5
60	9
61	8
62	21
63	9
64	3
65	8
66	9
67	16
68	17
DEPOT_SECTION
1
-1
EOF
