experiment/data/lkh-res/Vrp-Set-B-n68/Vrp-Set-B-n68-lkh/0.lkh1.log
PARAMETER_FILE = baseline_results/cvrp_lkh/Vrp-Set-B-n68/Vrp-Set-B-n68-lkh/0.lkh1.par
Reading PROBLEM_FILE: "baseline_results/cvrp_lkh/Vrp-Set-B-n68/Vrp-Set-B-n68-lkh/0.lkh1.vrp" ... done
ASCENT_CANDIDATES = 50
BACKBONE_TRIALS = 0
BACKTRACKING = NO
# BWTSP =
# CANDIDATE_FILE =
CANDIDATE_SET_TYPE = ALPHA
# DISTANCE =
DEPOT = 1
# EDGE_FILE =
EXCESS = 0.0147059
EXTERNAL_SALESMEN = 0
EXTRA_CANDIDATES = 0 
EXTRA_CANDIDATE_SET_TYPE = QUADRANT
GAIN23 = NO
GAIN_CRITERION = YES
INITIAL_PERIOD = 100
INITIAL_STEP_SIZE = 1
INITIAL_TOUR_ALGORITHM = WALK
# INITIAL_TOUR_FILE = 
INITIAL_TOUR_FRACTION = 1.000
# INPUT_TOUR_FILE = 
KICK_TYPE = 4
KICKS = 1
# MAX_BREADTH =
MAKESPAN = NO
MAX_CANDIDATES = 5 
MAX_SWAPS = 0
MAX_TRIALS = 10000
# MERGE_TOUR_FILE =
MOVE_TYPE = 5 SPECIAL
MTSP_MIN_SIZE = 1
MTSP_MAX_SIZE = 67
# MTSP_SOLUTION_FILE = 
# NONSEQUENTIAL_MOVE_TYPE = 5
# OPTIMUM =
OUTPUT_TOUR_FILE = baseline_results/cvrp_lkh/Vrp-Set-B-n68/Vrp-Set-B-n68-lkh/0.lkh1.tour
PATCHING_A = 1 
PATCHING_C = 0 
# PI_FILE = 
POPMUSIC_INITIAL_TOUR = NO
POPMUSIC_MAX_NEIGHBORS = 5
POPMUSIC_SAMPLE_SIZE = 10
POPMUSIC_SOLUTIONS = 50
POPMUSIC_TRIALS = 1
POPULATION_SIZE = 10
PRECISION = 100
PROBLEM_FILE = baseline_results/cvrp_lkh/Vrp-Set-B-n68/Vrp-Set-B-n68-lkh/0.lkh1.vrp
RECOMBINATION = IPT
RESTRICTED_SEARCH = YES
RUNS = 1
SALESMEN = 9
SCALE = 1
SEED = 1234
# SINTEF_SOLUTION_FILE = 
STOP_AT_OPTIMUM = YES
SUBGRADIENT = YES
# SUBPROBLEM_SIZE =
# SUBPROBLEM_TOUR_FILE = 
SUBSEQUENT_MOVE_TYPE = 5 SPECIAL
SUBSEQUENT_PATCHING = YES
# TIME_LIMIT =
# TOTAL_TIME_LIMIT =
# TOUR_FILE = 
TRACE_LEVEL = 1
VEHICLES = 9

Lower bound = 72854.7, Ascent time = 0.02 sec.
Cand.min = 5, Cand.avg = 5.0, Cand.max = 5
Preprocessing time = 0.02 sec.
* 1: Cost = 0_134136, Time = 0.01 sec. 
Writing OUTPUT_TOUR_FILE: "baseline_results/cvrp_lkh/Vrp-Set-B-n68/Vrp-Set-B-n68-lkh/0.lkh1.tour" ... done
* 4: Cost = 0_132592, Time = 0.02 sec. 
Writing OUTPUT_TOUR_FILE: "baseline_results/cvrp_lkh/Vrp-Set-B-n68/Vrp-Set-B-n68-lkh/0.lkh1.tour" ... done
* 6: Cost = 0_130059, Time = 0.04 sec. 
Writing OUTPUT_TOUR_FILE: "baseline_results/cvrp_lkh/Vrp-Set-B-n68/Vrp-Set-B-n68-lkh/0.lkh1.tour" ... done
* 7: Cost = 0_129960, Time = 0.04 sec. 
Writing OUTPUT_TOUR_FILE: "baseline_results/cvrp_lkh/Vrp-Set-B-n68/Vrp-Set-B-n68-lkh/0.lkh1.tour" ... done
* 23: Cost = 0_129550, Time = 0.09 sec. 
Writing OUTPUT_TOUR_FILE: "baseline_results/cvrp_lkh/Vrp-Set-B-n68/Vrp-Set-B-n68-lkh/0.lkh1.tour" ... done
* 30: Cost = 0_129504, Time = 0.13 sec. 
Writing OUTPUT_TOUR_FILE: "baseline_results/cvrp_lkh/Vrp-Set-B-n68/Vrp-Set-B-n68-lkh/0.lkh1.tour" ... done
* 876: Cost = 0_129444, Time = 2.82 sec. 
Writing OUTPUT_TOUR_FILE: "baseline_results/cvrp_lkh/Vrp-Set-B-n68/Vrp-Set-B-n68-lkh/0.lkh1.tour" ... done
* 9721: Cost = 0_128307, Time = 30.47 sec. 
Writing OUTPUT_TOUR_FILE: "baseline_results/cvrp_lkh/Vrp-Set-B-n68/Vrp-Set-B-n68-lkh/0.lkh1.tour" ... done
* 9722: Cost = 0_128168, Time = 30.47 sec. 
Writing OUTPUT_TOUR_FILE: "baseline_results/cvrp_lkh/Vrp-Set-B-n68/Vrp-Set-B-n68-lkh/0.lkh1.tour" ... done
* 9734: Cost = 0_128107, Time = 30.52 sec. 
Writing OUTPUT_TOUR_FILE: "baseline_results/cvrp_lkh/Vrp-Set-B-n68/Vrp-Set-B-n68-lkh/0.lkh1.tour" ... done
Population:
  1: 0_128107
Run 1: Cost = 0_128107, Time = 31.73 sec. 

Successes/Runs = 0/1 
Cost.min = 128107, Cost.avg = 128107.00, Cost.max = 128107
Gap.min = 0.0000%, Gap.avg = 0.0000%, Gap.max = 0.0000%
Penalty.min = 0, Penalty.avg = 0.00, Penalty.max = 0
Trials.min = 10000, Trials.avg = 10000.0, Trials.max = 10000
Time.min = 31.73 sec., Time.avg = 31.73 sec., Time.max = 31.73 sec.
Time.total = 31.75 sec.
  Size.min = 5, Size.max = 10, Penalty = 0
  Cost.min = 5553, Cost.max = 21837, Cost.sum = 128107
Best CVRP solution:
  Cost = 0_128107

