experiment/data/lkh-res/Vrp-Set-B-n68/Vrp-Set-B-n68-lkh/0.lkh1.tour
NAME : 0.128107.tour
COMMENT : Length = 128107
COMMENT : Found by LKH-3 [Keld Helsgaun] Tue Apr  9 01:04:04 2024
TYPE : TOUR
DIMENSION : 76
TOUR_SECTION
1
20
54
39
51
64
76
43
29
19
25
11
59
7
33
37
68
72
27
62
52
58
53
18
34
16
70
14
6
15
63
55
60
46
13
71
26
40
24
12
4
56
41
69
28
66
67
44
47
8
73
30
21
10
49
45
35
17
31
22
65
74
32
36
48
61
5
57
2
75
38
42
9
3
23
50
-1
EOF
